c b=5,c=513
p cnf 19 24
5 -10 0
5 -19 0
-5 10 0
-5 19 0
4 -9 0
4 -18 0
-4 9 0
-4 18 0
3 -8 0
3 -17 0
-3 8 0
-3 17 0
2 -7 0
2 -16 0
-2 7 0
-2 16 0
1 -6 0
1 -15 0
-1 6 0
-1 15 0
-11 0
-12 0
-13 0
-14 0
